(set-logic HORN)

(declare-datatypes ((Bool_0 0)) (((false_0 ) (true_0 ))))
(declare-datatypes ((Nat_0 0)) (((Z_0 ) (S_0  (projS_0 Nat_0)))))

(declare-fun |max_0| ( Nat_0 Nat_0 Nat_0 ) Bool)
(declare-fun |x_2| ( Bool_0 Nat_0 Nat_0 ) Bool)
(declare-fun |diseqBool_0| ( Bool_0 Bool_0 ) Bool)
(declare-fun |x_5| ( Bool_0 Nat_0 Nat_0 ) Bool)

(assert
  (forall ( (v_0 Bool_0) (v_1 Bool_0) ) 
    (=>
      (and
        (and true (= v_0 false_0) (= v_1 true_0))
      )
      (diseqBool_0 v_0 v_1)
    )
  )
)
(assert
  (forall ( (v_0 Bool_0) (v_1 Bool_0) ) 
    (=>
      (and
        (and true (= v_0 true_0) (= v_1 false_0))
      )
      (diseqBool_0 v_0 v_1)
    )
  )
)
(assert
  (forall ( (A Nat_0) (B Nat_0) (C Nat_0) (D Nat_0) (E Nat_0) (F Nat_0) ) 
    (=>
      (and
        (max_0 D F E)
        (and (= C (S_0 D)) (= B (S_0 F)) (= A (S_0 E)))
      )
      (max_0 C B A)
    )
  )
)
(assert
  (forall ( (A Nat_0) (B Nat_0) (C Nat_0) (v_3 Nat_0) ) 
    (=>
      (and
        (and (= A (S_0 C)) (= B (S_0 C)) (= v_3 Z_0))
      )
      (max_0 B A v_3)
    )
  )
)
(assert
  (forall ( (A Nat_0) (v_1 Nat_0) (v_2 Nat_0) ) 
    (=>
      (and
        (and true (= v_1 Z_0) (= v_2 A))
      )
      (max_0 A v_1 v_2)
    )
  )
)
(assert
  (forall ( (A Nat_0) (B Nat_0) (C Bool_0) (D Nat_0) (E Nat_0) ) 
    (=>
      (and
        (x_2 C E D)
        (and (= A (S_0 D)) (= B (S_0 E)))
      )
      (x_2 C B A)
    )
  )
)
(assert
  (forall ( (A Nat_0) (B Nat_0) (v_2 Bool_0) (v_3 Nat_0) ) 
    (=>
      (and
        (and (= A (S_0 B)) (= v_2 false_0) (= v_3 Z_0))
      )
      (x_2 v_2 A v_3)
    )
  )
)
(assert
  (forall ( (A Nat_0) (B Nat_0) (v_2 Bool_0) (v_3 Nat_0) ) 
    (=>
      (and
        (and (= A (S_0 B)) (= v_2 false_0) (= v_3 Z_0))
      )
      (x_2 v_2 v_3 A)
    )
  )
)
(assert
  (forall ( (v_0 Bool_0) (v_1 Nat_0) (v_2 Nat_0) ) 
    (=>
      (and
        (and true (= v_0 true_0) (= v_1 Z_0) (= v_2 Z_0))
      )
      (x_2 v_0 v_1 v_2)
    )
  )
)
(assert
  (forall ( (A Nat_0) (B Nat_0) (C Bool_0) (D Nat_0) (E Nat_0) ) 
    (=>
      (and
        (x_5 C E D)
        (and (= A (S_0 D)) (= B (S_0 E)))
      )
      (x_5 C B A)
    )
  )
)
(assert
  (forall ( (A Nat_0) (B Nat_0) (v_2 Bool_0) (v_3 Nat_0) ) 
    (=>
      (and
        (and (= A (S_0 B)) (= v_2 false_0) (= v_3 Z_0))
      )
      (x_5 v_2 A v_3)
    )
  )
)
(assert
  (forall ( (A Nat_0) (v_1 Bool_0) (v_2 Nat_0) ) 
    (=>
      (and
        (and true (= v_1 true_0) (= v_2 Z_0))
      )
      (x_5 v_1 v_2 A)
    )
  )
)
(assert
  (forall ( (A Nat_0) (B Bool_0) (C Bool_0) (D Nat_0) (E Nat_0) ) 
    (=>
      (and
        (max_0 A D E)
        (x_5 C E D)
        (x_2 B A D)
        (diseqBool_0 B C)
        true
      )
      false
    )
  )
)

(check-sat)
(exit)
